122     4       
28      30      20      28      
0       0       0       0       0       3       2       3       4       
10      0       0       5       0       3       18      38      44      
9       0       0       5       0       3       5       7       86      
4       0       9       0       0       2       15      22      
6       0       0       0       2       3       6       8       14      
6       0       9       0       0       2       26      39      
2       0       2       0       0       3       9       12      27      
2       0       10      0       0       3       10      95      117     
8       8       0       0       0       2       17      47      
10      0       0       10      0       3       11      16      19      
6       0       2       0       0       3       13      29      119     
6       4       0       0       0       3       21      41      46      
2       0       9       0       0       2       45      82      
8       0       0       0       4       3       35      53      77      
4       4       0       0       0       3       25      54      69      
7       0       0       0       10      2       23      34      
10      10      0       0       0       3       20      57      98      
10      9       0       0       0       3       28      42      85      
8       0       0       7       0       1       67      
2       0       0       0       2       2       24      30      
9       8       0       0       0       2       69      74      
5       0       0       8       0       1       62      
4       0       4       0       0       1       25      
3       0       0       5       0       2       33      36      
8       0       0       0       1       2       32      78      
3       0       0       0       3       3       53      64      115     
1       0       0       0       9       3       31      77      111     
5       0       0       0       1       3       37      49      76      
1       0       7       0       0       1       41      
2       0       0       0       9       3       71      72      92      
6       9       0       0       0       3       65      84      88      
1       0       0       0       7       3       77      102     105     
5       0       4       0       0       1       46      
6       0       0       0       6       1       65      
1       2       0       0       0       2       43      92      
8       0       8       0       0       3       40      43      66      
8       0       10      0       0       1       71      
4       9       0       0       0       1       47      
2       0       0       1       0       3       59      68      70      
5       0       0       3       0       1       83      
3       0       0       4       0       3       48      51      82      
8       0       0       0       1       3       72      73      74      
2       0       2       0       0       2       75      106     
10      0       0       0       10      2       56      83      
10      0       2       0       0       2       66      106     
8       0       5       0       0       3       66      94      114     
7       0       6       0       0       3       50      52      58      
6       0       0       6       0       2       64      103     
4       0       3       0       0       1       61      
2       0       0       5       0       3       67      76      108     
10      0       0       4       0       1       64      
4       0       10      0       0       2       55      80      
6       3       0       0       0       3       71      72      103     
3       3       0       0       0       3       56      84      90      
10      0       0       0       6       1       114     
9       0       0       7       0       1       96      
6       5       0       0       0       2       89      104     
9       0       0       0       9       1       63      
7       0       0       0       1       2       60      85      
1       0       0       0       3       2       87      104     
7       0       4       0       0       1       75      
2       0       2       0       0       1       114     
10      0       6       0       0       1       92      
3       0       5       0       0       1       79      
4       0       0       0       5       1       105     
9       10      0       0       0       1       88      
1       0       0       4       0       1       83      
1       0       4       0       0       2       69      73      
1       8       0       0       0       2       99      111     
4       2       0       0       0       2       81      89      
7       0       4       0       0       1       91      
6       0       10      0       0       2       81      96      
3       0       0       0       4       1       87      
10      0       6       0       0       1       101     
4       0       0       4       0       3       91      108     120     
1       0       8       0       0       3       81      84      94      
4       0       0       5       0       1       93      
9       0       0       0       6       1       107     
10      4       0       0       0       1       85      
10      0       0       0       7       3       82      95      112     
5       7       0       0       0       1       110     
5       2       0       0       0       1       97      
4       0       0       0       10      1       93      
4       0       5       0       0       1       97      
10      6       0       0       0       2       88      89      
7       6       0       0       0       1       100     
6       0       0       0       4       3       90      91      98      
10      0       6       0       0       1       109     
2       5       0       0       0       2       90      112     
6       0       0       8       0       2       93      110     
3       0       10      0       0       1       101     
10      0       0       10      0       3       95      102     103     
3       0       0       0       4       1       113     
3       0       0       0       6       1       118     
6       0       2       0       0       1       115     
3       0       4       0       0       1       100     
6       0       0       8       0       2       98      105     
5       0       0       0       4       1       113     
5       0       0       9       0       1       108     
9       0       0       0       2       2       102     104     
9       0       3       0       0       2       107     117     
3       0       0       4       0       2       111     112     
7       0       0       2       0       1       116     
1       0       0       0       5       1       120     
9       1       0       0       0       2       106     107     
10      0       0       0       2       1       109     
6       5       0       0       0       1       116     
7       3       0       0       0       2       109     110     
1       10      0       0       0       1       121     
8       0       0       0       2       1       113     
2       0       0       3       0       1       118     
4       0       8       0       0       2       120     121     
2       0       0       5       0       1       116     
3       0       10      0       0       2       115     117     
3       10      0       0       0       1       118     
5       0       4       0       0       1       121     
5       0       0       9       0       1       119     
7       0       0       10      0       1       119     
5       3       0       0       0       1       122     
10      0       10      0       0       1       122     
7       0       3       0       0       1       122     
0       0       0       0       0       0       